(set-info :smt-lib-version 2.6)
(set-logic QF_S)
(set-info :source |
Generated by: Joel Day, Thorsten Ehlers, Mitja Kulczynski, Federico Mora, Florin Manea, Dirk Nowotka, Danny Poulsen, Zhengyang Lu
Application: Test WOORPJE
Target solver: WOORPJE
Publications: Day, J. D., Ehlers, T., Kulczynski, M., Manea, F., Nowotka, D., & Poulsen, D. B. (2019). On solving word equations using SAT. In RP 2019
Description: Consisting of a system of 100 small random word equations with at most 6 letters, 10 variables and length 60.
|)
(set-info :license "https://creativecommons.org/licenses/by/4.0/")
(set-info :category "random")
(set-info :status unknown)

(declare-fun B () String)
(declare-fun D () String)
(declare-fun A () String)
(assert (= (str.++  "babcacbbccbaabbbaabb" D "abaab")  (str.++  "babcacbbccba" A "bcbcacaaaaccbaabaaabbabaab") ))
(assert (= (str.++  "babaababaabaaacaaacacbbbb" B "cabbaacbcabbccacaccaab")  (str.++  "babaababaabaaacaaacacbbbb" B "cabbaacbcabbccacaccaab") ))
(assert (= (str.++  "aaccbcbababcbabaaacbbbbcbacccbcacabbaaabcccccabbaabcba" "")  (str.++  "aaccbcbababcbabaaacbbbbcb" B "cabbaaabcccccabbaabcba") ))
(assert (= (str.++  "abbccaabccacbcaabbbcabaaaacbcccaacccbcaabbbabbbccbcbba" "")  (str.++  "abbccaabccacbcaabbbcabaaaacbccca" B "abbbabbbccbcbba") ))
(assert (= (str.++  "aabbccbaabcaabb" B "cbbcbabcbbcbbcbcbabbccbabbbbbcbc")  (str.++  "aabbccbaabcaabbacccbcacbbcbabcbbcbbcbcbabbccbabbbbbcbc" "") ))
(assert (= (str.++  "cb" B "bacabcbacabccbcabbbbabcaaabcabaaaacbaabaabaca")  (str.++  "cb" B "bacabcbacabccbcabbbbabcaaabcabaaaacbaabaabaca") ))
(assert (= (str.++  "bcbcbb" B "acacbcbaabcbcbbabababbcbabbbccabccabbcbab")  (str.++  "bcbcbb" B "acacbcbaabcbcbbabababbcbabbbccabccabbcbab") ))
(assert (= (str.++  "ccbcacbbacccbcaaabbacbaacaacbbcabbacaaaaaababcabbccbac" "")  (str.++  "ccbcacbb" B "aabbacbaacaacbbcabbacaaaaaababcabbccbac") ))
(assert (= (str.++  "bbbaccaacbacabcaaabacaaaaacacaabccaacabbcaacccbcabbccc" "")  (str.++  "bbbaccaacbacabcaaabacaaaaacacaabccaacabbca" B "bbccc") ))
(assert (= (str.++  "bccacccbcaabccacaaacabaacaccaaacbbaabbccabaccccabbbbac" "")  (str.++  "bcc" B "abccacaaacabaacaccaaacbbaabbccabaccccabbbbac") ))
(check-sat)

(exit)
